Route #1: 26 12 40 17 51 6
Route #2: 33 1 43 41 42 64 22
Route #3: 16 63 23 56 49 24 3
Route #4: 4 45 29 5 48 30
Route #5: 2 62 28 61 21
Route #6: 47 36 37 60 20 15 57 13 54
Route #7: 27 52 34 46 8 35 7
Route #8: 19 14 59 11 53
Route #9: 58 38 10 31 39
Route #10: 9 25 55 18 50 32 44
Cost 816